c *********************************
c * Circuit generated by BenCGen
c *
c * CarrySaveAdder_74_74_74_74_75
c *
c * Ports with 1 gate(s): 2
c * Ports with 2 gate(s): 371
c * Total gates: 373
c *********************************
p cnf 595 1265
1 373 0
-1 -373 0
1 -372 0
373 -372 0
-1 -373 372 0
372 -297 0
-372 297 0
1 75 -374 0
-1 75 374 0
1 -75 374 0
-1 -75 -374 0
374 149 -223 0
-374 149 223 0
374 -149 223 0
-374 -149 -223 0
149 -375 0
374 -375 0
-149 -374 375 0
75 -376 0
1 -376 0
-75 -1 376 0
-375 298 0
-376 298 0
375 376 -298 0
2 76 -377 0
-2 76 377 0
2 -76 377 0
-2 -76 -377 0
377 150 -224 0
-377 150 224 0
377 -150 224 0
-377 -150 -224 0
150 -378 0
377 -378 0
-150 -377 378 0
76 -379 0
2 -379 0
-76 -2 379 0
-378 299 0
-379 299 0
378 379 -299 0
3 77 -380 0
-3 77 380 0
3 -77 380 0
-3 -77 -380 0
380 151 -225 0
-380 151 225 0
380 -151 225 0
-380 -151 -225 0
151 -381 0
380 -381 0
-151 -380 381 0
77 -382 0
3 -382 0
-77 -3 382 0
-381 300 0
-382 300 0
381 382 -300 0
4 78 -383 0
-4 78 383 0
4 -78 383 0
-4 -78 -383 0
383 152 -226 0
-383 152 226 0
383 -152 226 0
-383 -152 -226 0
152 -384 0
383 -384 0
-152 -383 384 0
78 -385 0
4 -385 0
-78 -4 385 0
-384 301 0
-385 301 0
384 385 -301 0
5 79 -386 0
-5 79 386 0
5 -79 386 0
-5 -79 -386 0
386 153 -227 0
-386 153 227 0
386 -153 227 0
-386 -153 -227 0
153 -387 0
386 -387 0
-153 -386 387 0
79 -388 0
5 -388 0
-79 -5 388 0
-387 302 0
-388 302 0
387 388 -302 0
6 80 -389 0
-6 80 389 0
6 -80 389 0
-6 -80 -389 0
389 154 -228 0
-389 154 228 0
389 -154 228 0
-389 -154 -228 0
154 -390 0
389 -390 0
-154 -389 390 0
80 -391 0
6 -391 0
-80 -6 391 0
-390 303 0
-391 303 0
390 391 -303 0
7 81 -392 0
-7 81 392 0
7 -81 392 0
-7 -81 -392 0
392 155 -229 0
-392 155 229 0
392 -155 229 0
-392 -155 -229 0
155 -393 0
392 -393 0
-155 -392 393 0
81 -394 0
7 -394 0
-81 -7 394 0
-393 304 0
-394 304 0
393 394 -304 0
8 82 -395 0
-8 82 395 0
8 -82 395 0
-8 -82 -395 0
395 156 -230 0
-395 156 230 0
395 -156 230 0
-395 -156 -230 0
156 -396 0
395 -396 0
-156 -395 396 0
82 -397 0
8 -397 0
-82 -8 397 0
-396 305 0
-397 305 0
396 397 -305 0
9 83 -398 0
-9 83 398 0
9 -83 398 0
-9 -83 -398 0
398 157 -231 0
-398 157 231 0
398 -157 231 0
-398 -157 -231 0
157 -399 0
398 -399 0
-157 -398 399 0
83 -400 0
9 -400 0
-83 -9 400 0
-399 306 0
-400 306 0
399 400 -306 0
10 84 -401 0
-10 84 401 0
10 -84 401 0
-10 -84 -401 0
401 158 -232 0
-401 158 232 0
401 -158 232 0
-401 -158 -232 0
158 -402 0
401 -402 0
-158 -401 402 0
84 -403 0
10 -403 0
-84 -10 403 0
-402 307 0
-403 307 0
402 403 -307 0
11 85 -404 0
-11 85 404 0
11 -85 404 0
-11 -85 -404 0
404 159 -233 0
-404 159 233 0
404 -159 233 0
-404 -159 -233 0
159 -405 0
404 -405 0
-159 -404 405 0
85 -406 0
11 -406 0
-85 -11 406 0
-405 308 0
-406 308 0
405 406 -308 0
12 86 -407 0
-12 86 407 0
12 -86 407 0
-12 -86 -407 0
407 160 -234 0
-407 160 234 0
407 -160 234 0
-407 -160 -234 0
160 -408 0
407 -408 0
-160 -407 408 0
86 -409 0
12 -409 0
-86 -12 409 0
-408 309 0
-409 309 0
408 409 -309 0
13 87 -410 0
-13 87 410 0
13 -87 410 0
-13 -87 -410 0
410 161 -235 0
-410 161 235 0
410 -161 235 0
-410 -161 -235 0
161 -411 0
410 -411 0
-161 -410 411 0
87 -412 0
13 -412 0
-87 -13 412 0
-411 310 0
-412 310 0
411 412 -310 0
14 88 -413 0
-14 88 413 0
14 -88 413 0
-14 -88 -413 0
413 162 -236 0
-413 162 236 0
413 -162 236 0
-413 -162 -236 0
162 -414 0
413 -414 0
-162 -413 414 0
88 -415 0
14 -415 0
-88 -14 415 0
-414 311 0
-415 311 0
414 415 -311 0
15 89 -416 0
-15 89 416 0
15 -89 416 0
-15 -89 -416 0
416 163 -237 0
-416 163 237 0
416 -163 237 0
-416 -163 -237 0
163 -417 0
416 -417 0
-163 -416 417 0
89 -418 0
15 -418 0
-89 -15 418 0
-417 312 0
-418 312 0
417 418 -312 0
16 90 -419 0
-16 90 419 0
16 -90 419 0
-16 -90 -419 0
419 164 -238 0
-419 164 238 0
419 -164 238 0
-419 -164 -238 0
164 -420 0
419 -420 0
-164 -419 420 0
90 -421 0
16 -421 0
-90 -16 421 0
-420 313 0
-421 313 0
420 421 -313 0
17 91 -422 0
-17 91 422 0
17 -91 422 0
-17 -91 -422 0
422 165 -239 0
-422 165 239 0
422 -165 239 0
-422 -165 -239 0
165 -423 0
422 -423 0
-165 -422 423 0
91 -424 0
17 -424 0
-91 -17 424 0
-423 314 0
-424 314 0
423 424 -314 0
18 92 -425 0
-18 92 425 0
18 -92 425 0
-18 -92 -425 0
425 166 -240 0
-425 166 240 0
425 -166 240 0
-425 -166 -240 0
166 -426 0
425 -426 0
-166 -425 426 0
92 -427 0
18 -427 0
-92 -18 427 0
-426 315 0
-427 315 0
426 427 -315 0
19 93 -428 0
-19 93 428 0
19 -93 428 0
-19 -93 -428 0
428 167 -241 0
-428 167 241 0
428 -167 241 0
-428 -167 -241 0
167 -429 0
428 -429 0
-167 -428 429 0
93 -430 0
19 -430 0
-93 -19 430 0
-429 316 0
-430 316 0
429 430 -316 0
20 94 -431 0
-20 94 431 0
20 -94 431 0
-20 -94 -431 0
431 168 -242 0
-431 168 242 0
431 -168 242 0
-431 -168 -242 0
168 -432 0
431 -432 0
-168 -431 432 0
94 -433 0
20 -433 0
-94 -20 433 0
-432 317 0
-433 317 0
432 433 -317 0
21 95 -434 0
-21 95 434 0
21 -95 434 0
-21 -95 -434 0
434 169 -243 0
-434 169 243 0
434 -169 243 0
-434 -169 -243 0
169 -435 0
434 -435 0
-169 -434 435 0
95 -436 0
21 -436 0
-95 -21 436 0
-435 318 0
-436 318 0
435 436 -318 0
22 96 -437 0
-22 96 437 0
22 -96 437 0
-22 -96 -437 0
437 170 -244 0
-437 170 244 0
437 -170 244 0
-437 -170 -244 0
170 -438 0
437 -438 0
-170 -437 438 0
96 -439 0
22 -439 0
-96 -22 439 0
-438 319 0
-439 319 0
438 439 -319 0
23 97 -440 0
-23 97 440 0
23 -97 440 0
-23 -97 -440 0
440 171 -245 0
-440 171 245 0
440 -171 245 0
-440 -171 -245 0
171 -441 0
440 -441 0
-171 -440 441 0
97 -442 0
23 -442 0
-97 -23 442 0
-441 320 0
-442 320 0
441 442 -320 0
24 98 -443 0
-24 98 443 0
24 -98 443 0
-24 -98 -443 0
443 172 -246 0
-443 172 246 0
443 -172 246 0
-443 -172 -246 0
172 -444 0
443 -444 0
-172 -443 444 0
98 -445 0
24 -445 0
-98 -24 445 0
-444 321 0
-445 321 0
444 445 -321 0
25 99 -446 0
-25 99 446 0
25 -99 446 0
-25 -99 -446 0
446 173 -247 0
-446 173 247 0
446 -173 247 0
-446 -173 -247 0
173 -447 0
446 -447 0
-173 -446 447 0
99 -448 0
25 -448 0
-99 -25 448 0
-447 322 0
-448 322 0
447 448 -322 0
26 100 -449 0
-26 100 449 0
26 -100 449 0
-26 -100 -449 0
449 174 -248 0
-449 174 248 0
449 -174 248 0
-449 -174 -248 0
174 -450 0
449 -450 0
-174 -449 450 0
100 -451 0
26 -451 0
-100 -26 451 0
-450 323 0
-451 323 0
450 451 -323 0
27 101 -452 0
-27 101 452 0
27 -101 452 0
-27 -101 -452 0
452 175 -249 0
-452 175 249 0
452 -175 249 0
-452 -175 -249 0
175 -453 0
452 -453 0
-175 -452 453 0
101 -454 0
27 -454 0
-101 -27 454 0
-453 324 0
-454 324 0
453 454 -324 0
28 102 -455 0
-28 102 455 0
28 -102 455 0
-28 -102 -455 0
455 176 -250 0
-455 176 250 0
455 -176 250 0
-455 -176 -250 0
176 -456 0
455 -456 0
-176 -455 456 0
102 -457 0
28 -457 0
-102 -28 457 0
-456 325 0
-457 325 0
456 457 -325 0
29 103 -458 0
-29 103 458 0
29 -103 458 0
-29 -103 -458 0
458 177 -251 0
-458 177 251 0
458 -177 251 0
-458 -177 -251 0
177 -459 0
458 -459 0
-177 -458 459 0
103 -460 0
29 -460 0
-103 -29 460 0
-459 326 0
-460 326 0
459 460 -326 0
30 104 -461 0
-30 104 461 0
30 -104 461 0
-30 -104 -461 0
461 178 -252 0
-461 178 252 0
461 -178 252 0
-461 -178 -252 0
178 -462 0
461 -462 0
-178 -461 462 0
104 -463 0
30 -463 0
-104 -30 463 0
-462 327 0
-463 327 0
462 463 -327 0
31 105 -464 0
-31 105 464 0
31 -105 464 0
-31 -105 -464 0
464 179 -253 0
-464 179 253 0
464 -179 253 0
-464 -179 -253 0
179 -465 0
464 -465 0
-179 -464 465 0
105 -466 0
31 -466 0
-105 -31 466 0
-465 328 0
-466 328 0
465 466 -328 0
32 106 -467 0
-32 106 467 0
32 -106 467 0
-32 -106 -467 0
467 180 -254 0
-467 180 254 0
467 -180 254 0
-467 -180 -254 0
180 -468 0
467 -468 0
-180 -467 468 0
106 -469 0
32 -469 0
-106 -32 469 0
-468 329 0
-469 329 0
468 469 -329 0
33 107 -470 0
-33 107 470 0
33 -107 470 0
-33 -107 -470 0
470 181 -255 0
-470 181 255 0
470 -181 255 0
-470 -181 -255 0
181 -471 0
470 -471 0
-181 -470 471 0
107 -472 0
33 -472 0
-107 -33 472 0
-471 330 0
-472 330 0
471 472 -330 0
34 108 -473 0
-34 108 473 0
34 -108 473 0
-34 -108 -473 0
473 182 -256 0
-473 182 256 0
473 -182 256 0
-473 -182 -256 0
182 -474 0
473 -474 0
-182 -473 474 0
108 -475 0
34 -475 0
-108 -34 475 0
-474 331 0
-475 331 0
474 475 -331 0
35 109 -476 0
-35 109 476 0
35 -109 476 0
-35 -109 -476 0
476 183 -257 0
-476 183 257 0
476 -183 257 0
-476 -183 -257 0
183 -477 0
476 -477 0
-183 -476 477 0
109 -478 0
35 -478 0
-109 -35 478 0
-477 332 0
-478 332 0
477 478 -332 0
36 110 -479 0
-36 110 479 0
36 -110 479 0
-36 -110 -479 0
479 184 -258 0
-479 184 258 0
479 -184 258 0
-479 -184 -258 0
184 -480 0
479 -480 0
-184 -479 480 0
110 -481 0
36 -481 0
-110 -36 481 0
-480 333 0
-481 333 0
480 481 -333 0
37 111 -482 0
-37 111 482 0
37 -111 482 0
-37 -111 -482 0
482 185 -259 0
-482 185 259 0
482 -185 259 0
-482 -185 -259 0
185 -483 0
482 -483 0
-185 -482 483 0
111 -484 0
37 -484 0
-111 -37 484 0
-483 334 0
-484 334 0
483 484 -334 0
38 112 -485 0
-38 112 485 0
38 -112 485 0
-38 -112 -485 0
485 186 -260 0
-485 186 260 0
485 -186 260 0
-485 -186 -260 0
186 -486 0
485 -486 0
-186 -485 486 0
112 -487 0
38 -487 0
-112 -38 487 0
-486 335 0
-487 335 0
486 487 -335 0
39 113 -488 0
-39 113 488 0
39 -113 488 0
-39 -113 -488 0
488 187 -261 0
-488 187 261 0
488 -187 261 0
-488 -187 -261 0
187 -489 0
488 -489 0
-187 -488 489 0
113 -490 0
39 -490 0
-113 -39 490 0
-489 336 0
-490 336 0
489 490 -336 0
40 114 -491 0
-40 114 491 0
40 -114 491 0
-40 -114 -491 0
491 188 -262 0
-491 188 262 0
491 -188 262 0
-491 -188 -262 0
188 -492 0
491 -492 0
-188 -491 492 0
114 -493 0
40 -493 0
-114 -40 493 0
-492 337 0
-493 337 0
492 493 -337 0
41 115 -494 0
-41 115 494 0
41 -115 494 0
-41 -115 -494 0
494 189 -263 0
-494 189 263 0
494 -189 263 0
-494 -189 -263 0
189 -495 0
494 -495 0
-189 -494 495 0
115 -496 0
41 -496 0
-115 -41 496 0
-495 338 0
-496 338 0
495 496 -338 0
42 116 -497 0
-42 116 497 0
42 -116 497 0
-42 -116 -497 0
497 190 -264 0
-497 190 264 0
497 -190 264 0
-497 -190 -264 0
190 -498 0
497 -498 0
-190 -497 498 0
116 -499 0
42 -499 0
-116 -42 499 0
-498 339 0
-499 339 0
498 499 -339 0
43 117 -500 0
-43 117 500 0
43 -117 500 0
-43 -117 -500 0
500 191 -265 0
-500 191 265 0
500 -191 265 0
-500 -191 -265 0
191 -501 0
500 -501 0
-191 -500 501 0
117 -502 0
43 -502 0
-117 -43 502 0
-501 340 0
-502 340 0
501 502 -340 0
44 118 -503 0
-44 118 503 0
44 -118 503 0
-44 -118 -503 0
503 192 -266 0
-503 192 266 0
503 -192 266 0
-503 -192 -266 0
192 -504 0
503 -504 0
-192 -503 504 0
118 -505 0
44 -505 0
-118 -44 505 0
-504 341 0
-505 341 0
504 505 -341 0
45 119 -506 0
-45 119 506 0
45 -119 506 0
-45 -119 -506 0
506 193 -267 0
-506 193 267 0
506 -193 267 0
-506 -193 -267 0
193 -507 0
506 -507 0
-193 -506 507 0
119 -508 0
45 -508 0
-119 -45 508 0
-507 342 0
-508 342 0
507 508 -342 0
46 120 -509 0
-46 120 509 0
46 -120 509 0
-46 -120 -509 0
509 194 -268 0
-509 194 268 0
509 -194 268 0
-509 -194 -268 0
194 -510 0
509 -510 0
-194 -509 510 0
120 -511 0
46 -511 0
-120 -46 511 0
-510 343 0
-511 343 0
510 511 -343 0
47 121 -512 0
-47 121 512 0
47 -121 512 0
-47 -121 -512 0
512 195 -269 0
-512 195 269 0
512 -195 269 0
-512 -195 -269 0
195 -513 0
512 -513 0
-195 -512 513 0
121 -514 0
47 -514 0
-121 -47 514 0
-513 344 0
-514 344 0
513 514 -344 0
48 122 -515 0
-48 122 515 0
48 -122 515 0
-48 -122 -515 0
515 196 -270 0
-515 196 270 0
515 -196 270 0
-515 -196 -270 0
196 -516 0
515 -516 0
-196 -515 516 0
122 -517 0
48 -517 0
-122 -48 517 0
-516 345 0
-517 345 0
516 517 -345 0
49 123 -518 0
-49 123 518 0
49 -123 518 0
-49 -123 -518 0
518 197 -271 0
-518 197 271 0
518 -197 271 0
-518 -197 -271 0
197 -519 0
518 -519 0
-197 -518 519 0
123 -520 0
49 -520 0
-123 -49 520 0
-519 346 0
-520 346 0
519 520 -346 0
50 124 -521 0
-50 124 521 0
50 -124 521 0
-50 -124 -521 0
521 198 -272 0
-521 198 272 0
521 -198 272 0
-521 -198 -272 0
198 -522 0
521 -522 0
-198 -521 522 0
124 -523 0
50 -523 0
-124 -50 523 0
-522 347 0
-523 347 0
522 523 -347 0
51 125 -524 0
-51 125 524 0
51 -125 524 0
-51 -125 -524 0
524 199 -273 0
-524 199 273 0
524 -199 273 0
-524 -199 -273 0
199 -525 0
524 -525 0
-199 -524 525 0
125 -526 0
51 -526 0
-125 -51 526 0
-525 348 0
-526 348 0
525 526 -348 0
52 126 -527 0
-52 126 527 0
52 -126 527 0
-52 -126 -527 0
527 200 -274 0
-527 200 274 0
527 -200 274 0
-527 -200 -274 0
200 -528 0
527 -528 0
-200 -527 528 0
126 -529 0
52 -529 0
-126 -52 529 0
-528 349 0
-529 349 0
528 529 -349 0
53 127 -530 0
-53 127 530 0
53 -127 530 0
-53 -127 -530 0
530 201 -275 0
-530 201 275 0
530 -201 275 0
-530 -201 -275 0
201 -531 0
530 -531 0
-201 -530 531 0
127 -532 0
53 -532 0
-127 -53 532 0
-531 350 0
-532 350 0
531 532 -350 0
54 128 -533 0
-54 128 533 0
54 -128 533 0
-54 -128 -533 0
533 202 -276 0
-533 202 276 0
533 -202 276 0
-533 -202 -276 0
202 -534 0
533 -534 0
-202 -533 534 0
128 -535 0
54 -535 0
-128 -54 535 0
-534 351 0
-535 351 0
534 535 -351 0
55 129 -536 0
-55 129 536 0
55 -129 536 0
-55 -129 -536 0
536 203 -277 0
-536 203 277 0
536 -203 277 0
-536 -203 -277 0
203 -537 0
536 -537 0
-203 -536 537 0
129 -538 0
55 -538 0
-129 -55 538 0
-537 352 0
-538 352 0
537 538 -352 0
56 130 -539 0
-56 130 539 0
56 -130 539 0
-56 -130 -539 0
539 204 -278 0
-539 204 278 0
539 -204 278 0
-539 -204 -278 0
204 -540 0
539 -540 0
-204 -539 540 0
130 -541 0
56 -541 0
-130 -56 541 0
-540 353 0
-541 353 0
540 541 -353 0
57 131 -542 0
-57 131 542 0
57 -131 542 0
-57 -131 -542 0
542 205 -279 0
-542 205 279 0
542 -205 279 0
-542 -205 -279 0
205 -543 0
542 -543 0
-205 -542 543 0
131 -544 0
57 -544 0
-131 -57 544 0
-543 354 0
-544 354 0
543 544 -354 0
58 132 -545 0
-58 132 545 0
58 -132 545 0
-58 -132 -545 0
545 206 -280 0
-545 206 280 0
545 -206 280 0
-545 -206 -280 0
206 -546 0
545 -546 0
-206 -545 546 0
132 -547 0
58 -547 0
-132 -58 547 0
-546 355 0
-547 355 0
546 547 -355 0
59 133 -548 0
-59 133 548 0
59 -133 548 0
-59 -133 -548 0
548 207 -281 0
-548 207 281 0
548 -207 281 0
-548 -207 -281 0
207 -549 0
548 -549 0
-207 -548 549 0
133 -550 0
59 -550 0
-133 -59 550 0
-549 356 0
-550 356 0
549 550 -356 0
60 134 -551 0
-60 134 551 0
60 -134 551 0
-60 -134 -551 0
551 208 -282 0
-551 208 282 0
551 -208 282 0
-551 -208 -282 0
208 -552 0
551 -552 0
-208 -551 552 0
134 -553 0
60 -553 0
-134 -60 553 0
-552 357 0
-553 357 0
552 553 -357 0
61 135 -554 0
-61 135 554 0
61 -135 554 0
-61 -135 -554 0
554 209 -283 0
-554 209 283 0
554 -209 283 0
-554 -209 -283 0
209 -555 0
554 -555 0
-209 -554 555 0
135 -556 0
61 -556 0
-135 -61 556 0
-555 358 0
-556 358 0
555 556 -358 0
62 136 -557 0
-62 136 557 0
62 -136 557 0
-62 -136 -557 0
557 210 -284 0
-557 210 284 0
557 -210 284 0
-557 -210 -284 0
210 -558 0
557 -558 0
-210 -557 558 0
136 -559 0
62 -559 0
-136 -62 559 0
-558 359 0
-559 359 0
558 559 -359 0
63 137 -560 0
-63 137 560 0
63 -137 560 0
-63 -137 -560 0
560 211 -285 0
-560 211 285 0
560 -211 285 0
-560 -211 -285 0
211 -561 0
560 -561 0
-211 -560 561 0
137 -562 0
63 -562 0
-137 -63 562 0
-561 360 0
-562 360 0
561 562 -360 0
64 138 -563 0
-64 138 563 0
64 -138 563 0
-64 -138 -563 0
563 212 -286 0
-563 212 286 0
563 -212 286 0
-563 -212 -286 0
212 -564 0
563 -564 0
-212 -563 564 0
138 -565 0
64 -565 0
-138 -64 565 0
-564 361 0
-565 361 0
564 565 -361 0
65 139 -566 0
-65 139 566 0
65 -139 566 0
-65 -139 -566 0
566 213 -287 0
-566 213 287 0
566 -213 287 0
-566 -213 -287 0
213 -567 0
566 -567 0
-213 -566 567 0
139 -568 0
65 -568 0
-139 -65 568 0
-567 362 0
-568 362 0
567 568 -362 0
66 140 -569 0
-66 140 569 0
66 -140 569 0
-66 -140 -569 0
569 214 -288 0
-569 214 288 0
569 -214 288 0
-569 -214 -288 0
214 -570 0
569 -570 0
-214 -569 570 0
140 -571 0
66 -571 0
-140 -66 571 0
-570 363 0
-571 363 0
570 571 -363 0
67 141 -572 0
-67 141 572 0
67 -141 572 0
-67 -141 -572 0
572 215 -289 0
-572 215 289 0
572 -215 289 0
-572 -215 -289 0
215 -573 0
572 -573 0
-215 -572 573 0
141 -574 0
67 -574 0
-141 -67 574 0
-573 364 0
-574 364 0
573 574 -364 0
68 142 -575 0
-68 142 575 0
68 -142 575 0
-68 -142 -575 0
575 216 -290 0
-575 216 290 0
575 -216 290 0
-575 -216 -290 0
216 -576 0
575 -576 0
-216 -575 576 0
142 -577 0
68 -577 0
-142 -68 577 0
-576 365 0
-577 365 0
576 577 -365 0
69 143 -578 0
-69 143 578 0
69 -143 578 0
-69 -143 -578 0
578 217 -291 0
-578 217 291 0
578 -217 291 0
-578 -217 -291 0
217 -579 0
578 -579 0
-217 -578 579 0
143 -580 0
69 -580 0
-143 -69 580 0
-579 366 0
-580 366 0
579 580 -366 0
70 144 -581 0
-70 144 581 0
70 -144 581 0
-70 -144 -581 0
581 218 -292 0
-581 218 292 0
581 -218 292 0
-581 -218 -292 0
218 -582 0
581 -582 0
-218 -581 582 0
144 -583 0
70 -583 0
-144 -70 583 0
-582 367 0
-583 367 0
582 583 -367 0
71 145 -584 0
-71 145 584 0
71 -145 584 0
-71 -145 -584 0
584 219 -293 0
-584 219 293 0
584 -219 293 0
-584 -219 -293 0
219 -585 0
584 -585 0
-219 -584 585 0
145 -586 0
71 -586 0
-145 -71 586 0
-585 368 0
-586 368 0
585 586 -368 0
72 146 -587 0
-72 146 587 0
72 -146 587 0
-72 -146 -587 0
587 220 -294 0
-587 220 294 0
587 -220 294 0
-587 -220 -294 0
220 -588 0
587 -588 0
-220 -587 588 0
146 -589 0
72 -589 0
-146 -72 589 0
-588 369 0
-589 369 0
588 589 -369 0
73 147 -590 0
-73 147 590 0
73 -147 590 0
-73 -147 -590 0
590 221 -295 0
-590 221 295 0
590 -221 295 0
-590 -221 -295 0
221 -591 0
590 -591 0
-221 -590 591 0
147 -592 0
73 -592 0
-147 -73 592 0
-591 370 0
-592 370 0
591 592 -370 0
74 148 -593 0
-74 148 593 0
74 -148 593 0
-74 -148 -593 0
593 222 -296 0
-593 222 296 0
593 -222 296 0
-593 -222 -296 0
222 -594 0
593 -594 0
-222 -593 594 0
148 -595 0
74 -595 0
-148 -74 595 0
-594 371 0
-595 371 0
594 595 -371 0
